c NeuroCodeBench 2.0 CNF formula with verdict Unsat
p cnf 21 126
1 7 18 -2 9 21 5 8 0
-1 -9 -18 4 -16 -11 12 15 0
1 7 -18 -13 -17 4 0
-1 -9 18 4 6 -5 0
1 7 -18 -13 -17 -4 -21 0
1 -7 17 -4 -11 3 12 0
1 -7 17 4 12 -11 -18 2 21 0
1 7 18 -2 9 21 5 -8 0
-1 -9 18 4 -6 14 0
-1 9 -13 -5 -20 -19 0
1 7 18 2 -19 -16 -21 -20 0
-1 9 13 -21 -4 12 15 -20 0
-1 -9 -18 4 16 8 -10 12 -11 6 0
-1 -9 18 4 -6 -14 -19 0
-1 -9 -18 -4 12 13 -15 0
-1 9 -13 -5 -20 19 16 -14 17 0
-1 9 -13 -5 -20 19 -16 14 0
-1 -9 -18 4 16 -8 -10 0
-1 -9 -18 -4 -12 3 14 5 16 6 -15 0
1 -7 17 4 12 -11 -18 -2 -20 0
1 7 18 -2 9 -21 0
-1 -9 -18 4 16 8 10 3 0
-1 9 -13 5 -20 0
-1 -9 -18 4 -16 11 -6 -19 -14 12 0
-1 9 -13 -5 -20 19 16 -14 -17 0
1 7 18 2 19 11 3 -21 0
1 7 -18 -13 17 -21 2 0
1 -7 17 4 -12 -2 0
1 7 18 2 -19 16 0
-1 -9 -18 -4 -12 3 14 5 16 -6 -21 0
-1 9 -13 -5 20 -15 -7 -3 0
-1 -9 -18 4 16 -8 10 21 0
-1 -9 18 4 6 5 20 0
1 7 18 -2 -9 -21 -15 19 0
1 7 -18 -13 17 -21 -2 6 0
-1 9 -13 -5 20 15 0
-1 -9 -18 4 -16 -11 -12 3 17 0
-1 -9 -18 4 -16 11 6 0
-1 -9 -18 4 16 8 -10 12 -11 -6 0
-1 -9 -18 -4 -12 3 14 -5 -16 20 0
1 -7 17 4 12 11 -8 0
-1 -9 -18 -4 -12 3 14 -5 16 0
-1 9 -13 5 20 11 4 0
1 -7 17 4 12 -11 18 -16 0
1 -7 17 4 12 -11 18 16 -5 0
-1 -9 -18 4 -16 -11 -12 3 -17 0
-1 9 13 -21 -4 12 -15 0
-1 9 13 -21 4 -6 14 2 0
-1 -9 -18 4 16 8 -10 -12 0
-1 -9 -18 -4 -12 3 14 5 16 6 15 -2 21 0
-1 9 13 -21 -4 -12 0
-1 -9 18 -4 -6 -20 15 0
1 7 18 -2 9 21 -5 14 0
-1 -9 -18 4 16 -8 10 -21 -15 0
1 -7 17 4 -12 2 0
-1 9 -13 -5 -20 19 -16 -14 0
-1 -9 -18 4 -16 -11 12 -15 17 0
-1 -9 18 -4 6 15 21 0
-1 -9 -18 4 -16 11 -6 -19 14 0
-1 -9 -18 4 16 -8 10 -21 15 0
-1 -9 -18 4 -16 -11 12 -15 -17 0
-1 -9 -18 4 -16 -11 -12 -3 0
-1 -9 -18 -4 -12 3 -14 0
1 7 18 -2 -9 21 0
-1 -9 18 4 -6 -14 19 0
1 -7 17 -4 -11 -3 6 -19 0
-1 9 -13 -5 20 -15 -7 3 0
1 7 18 -2 -9 -21 15 8 0
1 -7 17 4 12 -11 -18 2 -21 0
1 7 -18 -13 17 -21 -2 -6 0
-1 9 13 -21 4 -6 -14 -19 0
1 -7 17 4 12 11 8 0
1 7 -18 -13 17 21 0
-1 -9 18 -4 6 -15 0
1 7 18 2 -19 -16 21 0
1 -7 17 4 12 -11 18 16 5 14 0
1 -7 17 -4 11 -15 -18 0
1 -7 17 -4 -11 3 -12 -19 0
-1 9 13 -21 4 6 14 0
1 7 18 2 -19 -16 -21 20 0
-1 9 13 -21 -4 12 15 20 0
-1 -9 -18 -4 -12 3 14 5 -16 8 0
1 7 18 -2 -9 -21 15 -8 0
1 -7 17 4 12 -11 -18 -2 20 0
1 7 -18 -13 -17 -4 21 0
-1 -9 18 -4 -6 -20 -15 0
-1 -9 -18 4 -16 11 -6 -19 -14 -12 0
-1 -9 -18 4 16 8 10 -3 0
1 -7 17 -4 11 15 0
-1 -9 -18 -4 -12 3 14 5 -16 -8 0
-1 9 13 21 -3 0
-1 9 13 21 3 14 0
-1 -9 -18 -4 -12 3 14 5 16 6 15 2 0
1 7 18 -2 9 21 -5 -14 0
1 7 18 2 19 11 -3 0
1 -7 17 -4 -11 -3 -6 0
-1 9 -13 -5 20 -15 7 0
-1 -9 -18 4 -16 11 -6 19 0
1 7 -18 13 0
1 7 18 2 19 11 3 21 0
-1 -9 -18 4 16 8 -10 12 11 -17 0
-1 9 -13 5 20 11 -4 0
-1 -9 -18 -4 -12 3 14 5 16 -6 21 0
-1 -9 18 4 6 5 -20 0
-1 -9 -18 -4 -12 -3 21 0
-1 -9 18 -4 -6 20 0
-1 -9 -18 -4 -12 3 14 5 16 6 15 -2 -21 0
1 -7 17 -4 11 -15 18 0
1 -7 17 4 12 -11 18 16 5 -14 0
1 -7 -17 0
-1 9 13 -21 4 6 -14 0
-1 -9 -18 -4 -12 3 14 -5 -16 -20 0
1 7 18 2 19 -11 0
1 -7 17 -4 -11 -3 6 19 0
-1 -9 18 -4 6 15 -21 0
1 7 18 -2 -9 -21 -15 -19 0
-1 -9 -18 -4 12 13 15 0
-1 9 13 -21 4 -6 -14 19 0
-1 9 13 21 3 -14 0
1 -7 17 -4 -11 3 -12 19 0
-1 9 13 -21 4 -6 14 -2 0
-1 -9 -18 4 16 8 -10 12 11 17 0
-1 -9 -18 -4 12 -13 0
-1 9 -13 -5 -20 19 16 14 0
-1 -9 -18 -4 -12 -3 -21 0
-1 9 -13 5 20 -11 0
